* #variable= 431 #constraint= 220 
+1 x411 = 0 ;
+1 x56 -1 x137 = 0 ;
+1 x137 -1 x197 = 0 ;
+1 x197 -1 x243 = 0 ;
+1 x243 -1 x280 = 0 ;
+1 x312 +2 x321 +4 x330 +8 x339 +16 x348 +32 x357 +64 x366 +128 x375 +256 x384 +2 x313 +4 x322 +8 x331 +16 x340 +32 x349 +64 x358 +128 x367 +256 x376 +512 x385 +4 x314 +8 x323 +16 x332 +32 x341 +64 x350 +128 x359 +256 x368 +512 x377 +1024 x386 +8 x315 +16 x324 +32 x333 +64 x342 +128 x351 +256 x360 +512 x369 +1024 x378 +2048 x387 +16 x316 +32 x325 +64 x334 +128 x343 +256 x352 +512 x361 +1024 x370 +2048 x379 +4096 x388 +32 x317 +64 x326 +128 x335 +256 x344 +512 x353 +1024 x362 +2048 x371 +4096 x380 +8192 x389 +64 x318 +128 x327 +256 x336 +512 x345 +1024 x354 +2048 x363 +4096 x372 +8192 x381 +16384 x390 +128 x319 +256 x328 +512 x337 +1024 x346 +2048 x355 +4096 x364 +8192 x373 +16384 x382 +32768 x391 +256 x320 +512 x329 +1024 x338 +2048 x347 +4096 x356 +8192 x365 +16384 x374 +32768 x383 +65536 x392 -1 x20 -2 x21 -4 x22 -8 x23 -16 x24 -32 x25 -64 x26 -128 x27 -256 x28 -512 x29 -1024 x30 -2048 x31 -4096 x32 -8192 x33 -16384 x34 -32768 x35 -65536 x36 -131072 x37 = 0; 
+1 x1 -1 x20 +2 x2 -2 x21 +4 x3 -4 x22 +8 x4 -8 x23 +16 x5 -16 x24 +32 x6 -32 x25 +64 x7 -64 x26 +128 x8 -128 x27 +256 x9 -256 x28 +512 x10 -512 x29 +1024 x11 -1024 x30 +2048 x12 -2048 x31 +4096 x13 -4096 x32 +8192 x14 -8192 x33 +16384 x15 -16384 x34 +32768 x16 -32768 x35 +65536 x17 -65536 x36 +131072 x18 -131072 x37 >= 1 ;
+1 x412 = 0 ;
+2 x138 +1 x139 -1 x58 -1 x57 = 0 ;
+1 x139 -1 x198 = 0 ;
+1 x198 -1 x244 = 0 ;
+1 x244 -1 x281 = 0 ;
+1 x413 = 0 ;
+2 x140 +1 x141 -1 x61 -1 x59 -1 x60 = 0 ;
+2 x199 +1 x200 -1 x138 -1 x141 = 0 ;
+1 x200 -1 x245 = 0 ;
+1 x245 -1 x282 = 0 ;
+1 x414 = 0 ;
+2 x142 +1 x143 -1 x64 -1 x62 -1 x63 = 0 ;
+1 x65 -1 x169 = 0 ;
+2 x201 +1 x202 -1 x169 -1 x143 -1 x140 = 0 ;
+2 x246 +1 x247 -1 x199 -1 x202 = 0 ;
+1 x247 -1 x283 = 0 ;
+1 x415 = 0 ;
+2 x144 +1 x145 -1 x68 -1 x66 -1 x67 = 0 ;
+2 x170 +1 x171 -1 x70 -1 x69 = 0 ;
+2 x203 +1 x204 -1 x171 -1 x145 -1 x142 = 0 ;
+2 x248 +1 x249 -1 x201 -1 x204 = 0 ;
+2 x284 +1 x285 -1 x246 -1 x249 = 0 ;
+1 x416 = 0 ;
+2 x146 +1 x147 -1 x73 -1 x71 -1 x72 = 0 ;
+2 x172 +1 x173 -1 x76 -1 x74 -1 x75 = 0 ;
+2 x205 +1 x206 -1 x173 -1 x147 -1 x144 = 0 ;
+1 x170 -1 x229 = 0 ;
+2 x250 +1 x251 -1 x229 -1 x206 -1 x203 = 0 ;
+2 x286 +1 x287 -1 x248 -1 x251 = 0 ;
+1 x417 = 0 ;
+2 x148 +1 x149 -1 x79 -1 x77 -1 x78 = 0 ;
+2 x174 +1 x175 -1 x82 -1 x80 -1 x81 = 0 ;
+1 x83 -1 x189 = 0 ;
+2 x207 +1 x208 -1 x175 -1 x149 -1 x146 = 0 ;
+2 x230 +1 x231 -1 x189 -1 x172 = 0 ;
+2 x252 +1 x253 -1 x231 -1 x208 -1 x205 = 0 ;
+2 x288 +1 x289 -1 x250 -1 x253 = 0 ;
+1 x418 = 0 ;
+2 x150 +1 x151 -1 x86 -1 x84 -1 x85 = 0 ;
+2 x176 +1 x177 -1 x89 -1 x87 -1 x88 = 0 ;
+2 x190 +1 x191 -1 x91 -1 x90 = 0 ;
+2 x209 +1 x210 -1 x177 -1 x151 -1 x148 = 0 ;
+2 x232 +1 x233 -1 x191 -1 x174 = 0 ;
+2 x254 +1 x255 -1 x233 -1 x210 -1 x207 = 0 ;
+1 x230 -1 x275 = 0 ;
+2 x290 +1 x291 -1 x275 -1 x255 -1 x252 = 0 ;
+1 x419 = 0 ;
+2 x152 +1 x153 -1 x94 -1 x92 -1 x93 = 0 ;
+2 x178 +1 x179 -1 x97 -1 x95 -1 x96 = 0 ;
+2 x192 +1 x193 -1 x100 -1 x98 -1 x99 = 0 ;
+2 x211 +1 x212 -1 x179 -1 x153 -1 x150 = 0 ;
+2 x234 +1 x235 -1 x190 -1 x176 -1 x193 = 0 ;
+2 x256 +1 x257 -1 x235 -1 x212 -1 x209 = 0 ;
+1 x232 -1 x276 = 0 ;
+2 x292 +1 x293 -1 x276 -1 x257 -1 x254 = 0 ;
+1 x420 = 0 ;
+2 x154 +1 x155 -1 x103 -1 x101 -1 x102 = 0 ;
+2 x180 +1 x181 -1 x106 -1 x104 -1 x105 = 0 ;
+2 x194 +1 x195 -1 x108 -1 x107 = 0 ;
+2 x213 +1 x214 -1 x181 -1 x155 -1 x152 = 0 ;
+2 x236 +1 x237 -1 x192 -1 x178 -1 x195 = 0 ;
+2 x258 +1 x259 -1 x237 -1 x214 -1 x211 = 0 ;
+1 x234 -1 x277 = 0 ;
+2 x294 +1 x295 -1 x277 -1 x259 -1 x256 = 0 ;
+1 x421 = 0 ;
+2 x156 +1 x157 -1 x111 -1 x109 -1 x110 = 0 ;
+2 x182 +1 x183 -1 x114 -1 x112 -1 x113 = 0 ;
+1 x115 -1 x196 = 0 ;
+2 x215 +1 x216 -1 x183 -1 x157 -1 x154 = 0 ;
+2 x238 +1 x239 -1 x194 -1 x180 -1 x196 = 0 ;
+2 x260 +1 x261 -1 x239 -1 x216 -1 x213 = 0 ;
+1 x236 -1 x278 = 0 ;
+2 x296 +1 x297 -1 x278 -1 x261 -1 x258 = 0 ;
+1 x422 = 0 ;
+2 x158 +1 x159 -1 x118 -1 x116 -1 x117 = 0 ;
+2 x184 +1 x185 -1 x121 -1 x119 -1 x120 = 0 ;
+2 x217 +1 x218 -1 x185 -1 x159 -1 x156 = 0 ;
+1 x182 -1 x240 = 0 ;
+2 x262 +1 x263 -1 x240 -1 x218 -1 x215 = 0 ;
+1 x238 -1 x279 = 0 ;
+2 x298 +1 x299 -1 x279 -1 x263 -1 x260 = 0 ;
+1 x423 = 0 ;
+2 x160 +1 x161 -1 x124 -1 x122 -1 x123 = 0 ;
+2 x186 +1 x187 -1 x126 -1 x125 = 0 ;
+2 x219 +1 x220 -1 x187 -1 x161 -1 x158 = 0 ;
+1 x184 -1 x241 = 0 ;
+2 x264 +1 x265 -1 x241 -1 x220 -1 x217 = 0 ;
+2 x300 +1 x301 -1 x262 -1 x265 = 0 ;
+1 x424 = 0 ;
+2 x162 +1 x163 -1 x129 -1 x127 -1 x128 = 0 ;
+1 x130 -1 x188 = 0 ;
+2 x221 +1 x222 -1 x188 -1 x163 -1 x160 = 0 ;
+1 x186 -1 x242 = 0 ;
+2 x266 +1 x267 -1 x242 -1 x222 -1 x219 = 0 ;
+2 x302 +1 x303 -1 x264 -1 x267 = 0 ;
+1 x425 = 0 ;
+2 x164 +1 x165 -1 x133 -1 x131 -1 x132 = 0 ;
+2 x223 +1 x224 -1 x162 -1 x165 = 0 ;
+2 x268 +1 x269 -1 x221 -1 x224 = 0 ;
+2 x304 +1 x305 -1 x266 -1 x269 = 0 ;
+1 x426 = 0 ;
+2 x166 +1 x167 -1 x135 -1 x134 = 0 ;
+2 x225 +1 x226 -1 x164 -1 x167 = 0 ;
+2 x270 +1 x271 -1 x223 -1 x226 = 0 ;
+2 x306 +1 x307 -1 x268 -1 x271 = 0 ;
+1 x427 = 0 ;
+1 x136 -1 x168 = 0 ;
+2 x227 +1 x228 -1 x166 -1 x168 = 0 ;
+2 x272 +1 x273 -1 x225 -1 x228 = 0 ;
+2 x308 +1 x309 -1 x270 -1 x273 = 0 ;
+1 x428 = 0 ;
+1 x227 -1 x274 = 0 ;
+2 x310 +1 x311 -1 x272 -1 x274 = 0 ;
+1 x312 -1 x56 = 0 ;
+1 x313 -1 x58 = 0 ;
+1 x314 -1 x61 = 0 ;
+1 x315 -1 x65 = 0 ;
+1 x316 -1 x70 = 0 ;
+1 x317 -1 x76 = 0 ;
+1 x318 -1 x83 = 0 ;
+1 x319 -1 x91 = 0 ;
+1 x320 -1 x100 = 0 ;
+1 x321 -1 x57 = 0 ;
+1 x322 -1 x60 = 0 ;
+1 x323 -1 x64 = 0 ;
+1 x324 -1 x69 = 0 ;
+1 x325 -1 x75 = 0 ;
+1 x326 -1 x82 = 0 ;
+1 x327 -1 x90 = 0 ;
+1 x328 -1 x99 = 0 ;
+1 x329 -1 x108 = 0 ;
+1 x330 -1 x59 = 0 ;
+1 x331 -1 x63 = 0 ;
+1 x332 -1 x68 = 0 ;
+1 x333 -1 x74 = 0 ;
+1 x334 -1 x81 = 0 ;
+1 x335 -1 x89 = 0 ;
+1 x336 -1 x98 = 0 ;
+1 x337 -1 x107 = 0 ;
+1 x338 -1 x115 = 0 ;
+1 x339 -1 x62 = 0 ;
+1 x340 -1 x67 = 0 ;
+1 x341 -1 x73 = 0 ;
+1 x342 -1 x80 = 0 ;
+1 x343 -1 x88 = 0 ;
+1 x344 -1 x97 = 0 ;
+1 x345 -1 x106 = 0 ;
+1 x346 -1 x114 = 0 ;
+1 x347 -1 x121 = 0 ;
+1 x348 -1 x66 = 0 ;
+1 x349 -1 x72 = 0 ;
+1 x350 -1 x79 = 0 ;
+1 x351 -1 x87 = 0 ;
+1 x352 -1 x96 = 0 ;
+1 x353 -1 x105 = 0 ;
+1 x354 -1 x113 = 0 ;
+1 x355 -1 x120 = 0 ;
+1 x356 -1 x126 = 0 ;
+1 x357 -1 x71 = 0 ;
+1 x358 -1 x78 = 0 ;
+1 x359 -1 x86 = 0 ;
+1 x360 -1 x95 = 0 ;
+1 x361 -1 x104 = 0 ;
+1 x362 -1 x112 = 0 ;
+1 x363 -1 x119 = 0 ;
+1 x364 -1 x125 = 0 ;
+1 x365 -1 x130 = 0 ;
+1 x366 -1 x77 = 0 ;
+1 x367 -1 x85 = 0 ;
+1 x368 -1 x94 = 0 ;
+1 x369 -1 x103 = 0 ;
+1 x370 -1 x111 = 0 ;
+1 x371 -1 x118 = 0 ;
+1 x372 -1 x124 = 0 ;
+1 x373 -1 x129 = 0 ;
+1 x374 -1 x133 = 0 ;
+1 x375 -1 x84 = 0 ;
+1 x376 -1 x93 = 0 ;
+1 x377 -1 x102 = 0 ;
+1 x378 -1 x110 = 0 ;
+1 x379 -1 x117 = 0 ;
+1 x380 -1 x123 = 0 ;
+1 x381 -1 x128 = 0 ;
+1 x382 -1 x132 = 0 ;
+1 x383 -1 x135 = 0 ;
+1 x384 -1 x92 = 0 ;
+1 x385 -1 x101 = 0 ;
+1 x386 -1 x109 = 0 ;
+1 x387 -1 x116 = 0 ;
+1 x388 -1 x122 = 0 ;
+1 x389 -1 x127 = 0 ;
+1 x390 -1 x131 = 0 ;
+1 x391 -1 x134 = 0 ;
+1 x392 -1 x136 = 0 ;
+2 x393 +1 x1 -1 x280 -1 x411 = 0 ;
+2 x394 +1 x2 -1 x281 -1 x393 -1 x412 = 0 ;
+2 x395 +1 x3 -1 x282 -1 x394 -1 x413 = 0 ;
+2 x396 +1 x4 -1 x283 -1 x395 -1 x414 = 0 ;
+2 x397 +1 x5 -1 x285 -1 x396 -1 x415 = 0 ;
+2 x398 +1 x6 -1 x287 -1 x397 -1 x284 = 0 ;
+2 x399 +1 x7 -1 x289 -1 x398 -1 x286 = 0 ;
+2 x400 +1 x8 -1 x291 -1 x399 -1 x288 = 0 ;
+2 x401 +1 x9 -1 x293 -1 x400 -1 x290 = 0 ;
+2 x402 +1 x10 -1 x295 -1 x401 -1 x292 = 0 ;
+2 x403 +1 x11 -1 x297 -1 x402 -1 x294 = 0 ;
+2 x404 +1 x12 -1 x299 -1 x403 -1 x296 = 0 ;
+2 x405 +1 x13 -1 x301 -1 x404 -1 x298 = 0 ;
+2 x406 +1 x14 -1 x303 -1 x405 -1 x300 = 0 ;
+2 x407 +1 x15 -1 x305 -1 x406 -1 x302 = 0 ;
+2 x408 +1 x16 -1 x307 -1 x407 -1 x304 = 0 ;
+2 x409 +1 x17 -1 x309 -1 x408 -1 x306 = 0 ;
+2 x410 +1 x18 -1 x311 -1 x409 -1 x308 = 0 ;
+1 x410 -1 x19 = 0 ;
